  CUST NO.   XCOORD.   YCOORD.   DEMAND    READY TIME   DUE DATE   SERVICE TIME 
    1      40.00      50.00       0.00       0.00    1236.00       0.00 
    2      45.00      68.00      10.00     760.00    1120.00      90.00 
    3      45.00      70.00      30.00     668.00    1028.00      90.00 
    4      42.00      66.00      10.00      16.00     376.00      90.00 
    5      42.00      68.00      10.00     575.00     935.00      90.00 
    6      42.00      65.00      10.00      15.00     375.00      90.00 
    7      40.00      69.00      20.00     482.00     842.00      90.00 
    8      40.00      66.00      20.00      18.00     378.00      90.00 
    9      38.00      68.00      20.00     110.00     470.00      90.00 
   10      38.00      70.00      10.00     390.00     750.00      90.00 
   11      35.00      66.00      10.00     204.00     564.00      90.00 
   12      35.00      69.00      10.00     297.00     657.00      90.00 
   13      25.00      85.00      20.00     507.00     867.00      90.00 
   14      22.00      75.00      30.00      30.00     390.00      90.00 
   15      22.00      85.00      10.00     414.00     774.00      90.00 
   16      20.00      80.00      40.00     227.00     587.00      90.00 
   17      20.00      85.00      40.00     322.00     682.00      90.00 
   18      18.00      75.00      20.00      33.00     393.00      90.00 
   19      15.00      75.00      20.00      37.00     397.00      90.00 
   20      15.00      80.00      10.00     132.00     492.00      90.00 
   21      30.00      50.00      10.00      10.00     370.00      90.00 
   22      30.00      52.00      20.00     760.00    1120.00      90.00 
   23      28.00      52.00      20.00     668.00    1028.00      90.00 
   24      28.00      55.00      10.00     575.00     935.00      90.00 
   25      25.00      50.00      10.00      15.00     375.00      90.00 
   26      25.00      52.00      40.00      17.00     377.00      90.00 
   27      25.00      55.00      10.00     482.00     842.00      90.00 
   28      23.00      52.00      10.00     109.00     469.00      90.00 
   29      23.00      55.00      20.00     390.00     750.00      90.00 
   30      20.00      50.00      10.00     202.00     562.00      90.00 
   31      20.00      55.00      10.00     297.00     657.00      90.00 
   32      10.00      35.00      20.00      39.00     399.00      90.00 
   33      10.00      40.00      30.00      31.00     391.00      90.00 
   34       8.00      40.00      40.00      33.00     393.00      90.00 
   35       8.00      45.00      20.00     604.00     964.00      90.00 
   36       5.00      35.00      10.00     134.00     494.00      90.00 
   37       5.00      45.00      10.00     511.00     871.00      90.00 
   38       2.00      40.00      20.00     229.00     589.00      90.00 
   39       0.00      40.00      30.00     321.00     681.00      90.00 
   40       0.00      45.00      20.00     416.00     776.00      90.00 
   41      35.00      30.00      10.00     113.00     473.00      90.00 
   42      35.00      32.00      10.00      21.00     381.00      90.00 
   43      33.00      32.00      20.00      19.00     379.00      90.00 
   44      33.00      35.00      10.00      16.00     376.00      90.00 
   45      32.00      30.00      10.00     206.00     566.00      90.00 
   46      30.00      30.00      10.00     391.00     751.00      90.00 
   47      30.00      32.00      30.00     299.00     659.00      90.00 
   48      30.00      35.00      10.00     767.00    1127.00      90.00 
   49      28.00      30.00      10.00     483.00     843.00      90.00 
   50      28.00      35.00      10.00     766.00    1126.00      90.00 
   51      26.00      32.00      10.00     668.00    1028.00      90.00 
